NAME : ct_7_n_4_k10_t_99
COMMENT : (ct_7_n_4_k10_t_99, Min no of trucks: 4, Optimal value: 999.089181122839, Split: Yes)
TYPE : SDVRP
DIMENSION : 8
EDGE_WEIGHT_TYPE : EUC_2D
CAPACITY : 10
NODE_COORD_SECTION
1 100 100
2 89 5
3 10 48
4 74 167
5 170 91
6 130 128
7 104 173
8 46 13
DEMAND_SECTION
1 0
2 5.6
3 7.0
4 4.2
5 3.7
6 5.1
7 7.6
8 6.5
DEPOT_SECTION
 1
EOF